solution status: optimal solution found
objective value:                                   33
x57                                                 1 	(obj:1)
x64                                                 1 	(obj:1)
x66                                                 1 	(obj:1)
x68                                                 1 	(obj:1)
x69                                                 1 	(obj:1)
x71                                                 1 	(obj:1)
x73                                                 1 	(obj:1)
x76                                                 1 	(obj:1)
x79                                                 1 	(obj:1)
x80                                                 1 	(obj:1)
x86                                                 1 	(obj:1)
x88                                                 1 	(obj:1)
x96                                                 1 	(obj:1)
x97                                                 1 	(obj:1)
x100                                                1 	(obj:1)
x102                                                1 	(obj:1)
x116                                                1 	(obj:1)
x117                                                1 	(obj:1)
x118                                                1 	(obj:1)
x120                                                1 	(obj:1)
x123                                                1 	(obj:1)
x125                                                1 	(obj:1)
x127                                                1 	(obj:1)
x128                                                1 	(obj:1)
x142                                                1 	(obj:1)
x145                                                1 	(obj:1)
x147                                                1 	(obj:1)
x149                                                1 	(obj:1)
x155                                                1 	(obj:1)
x156                                                1 	(obj:1)
x157                                                1 	(obj:1)
x158                                                1 	(obj:1)
x160                                                1 	(obj:1)
thingy.thingy.chamber[1].first.ring_y                   21 	(obj:0)
thingy.thingy.chamber[1].first.ring_z                   17 	(obj:0)
thingy.pump_pinholes[1].hole_y                     22 	(obj:0)
thingy.pump_pinholes[1].hole_z                     16 	(obj:0)
thingy.thingy.chamber[3].first.voutlet_y                   22 	(obj:0)
thingy.thingy.chamber[3].first.voutlet_z                   18 	(obj:0)
thingy.thingy.prep.v2_y                            20 	(obj:0)
thingy.thingy.prep.v2_z                            21 	(obj:0)
thingy.thingy.chamber[2].first.voutlet_y                   23 	(obj:0)
thingy.thingy.chamber[2].first.voutlet_z                   14 	(obj:0)
thingy.flush_pump_pinholes[1].hole_y                   18 	(obj:0)
thingy.flush_pump_pinholes[1].hole_z                   15 	(obj:0)
thingy.thingy.chamber[3].first.ring_y                   19 	(obj:0)
thingy.thingy.chamber[3].first.ring_z                   16 	(obj:0)
thingy.ctrl_prep_inlet_hole_y                      19 	(obj:0)
thingy.ctrl_prep_inlet_hole_z                      17 	(obj:0)
thingy.thingy.chamber[3].first.vpump3.valves[0].vinlet_y                   20 	(obj:0)
thingy.thingy.chamber[3].first.vpump3.valves[0].vinlet_z                   16 	(obj:0)
thingy.thingy.chamber[1].first.voutlet_y                   23 	(obj:0)
thingy.thingy.chamber[1].first.voutlet_z                   16 	(obj:0)
thingy.thingy.chamber[0].first.ring_y                   22 	(obj:0)
thingy.thingy.chamber[0].first.ring_z                   17 	(obj:0)
thingy.thingy.chamber[2].first.vring_out_y                   18 	(obj:0)
thingy.thingy.chamber[2].first.vring_out_z                   13 	(obj:0)
thingy.thingy.chamber[2].first.vpump3.valves[0].vinlet_y                   21 	(obj:0)
thingy.thingy.chamber[2].first.vpump3.valves[0].vinlet_z                   15 	(obj:0)
thingy.thingy.chamber[2].first.ring_y                   19 	(obj:0)
thingy.thingy.chamber[2].first.ring_z                   14 	(obj:0)
thingy.thingy.chamber[0].first.voutlet_y                   24 	(obj:0)
thingy.thingy.chamber[0].first.voutlet_z                   19 	(obj:0)
thingy.flush_pump_pinholes[0].hole_y                   18 	(obj:0)
thingy.flush_pump_pinholes[0].hole_z                   12 	(obj:0)
thingy.thingy.prep.v1_y                            22 	(obj:0)
thingy.thingy.prep.v1_z                            20 	(obj:0)
thingy.pump_pinholes[0].hole_y                     18 	(obj:0)
thingy.pump_pinholes[0].hole_z                     14 	(obj:0)
thingy.flush_prep_inlet_hole_y                     19 	(obj:0)
thingy.flush_prep_inlet_hole_z                     18 	(obj:0)
thingy.thingy.chamber[0].first.vpump3.valves[0].vinlet_y                   23 	(obj:0)
thingy.thingy.chamber[0].first.vpump3.valves[0].vinlet_z                   20 	(obj:0)
thingy.thingy.prep.vout1_y                         23 	(obj:0)
thingy.thingy.prep.vout1_z                         19 	(obj:0)
thingy.thingy.chamber[1].first.vring_out_y                   17 	(obj:0)
thingy.thingy.chamber[1].first.vring_out_z                   15 	(obj:0)
thingy.thingy.chamber[1].first.vpump3.valves[0].vinlet_y                   21 	(obj:0)
thingy.thingy.chamber[1].first.vpump3.valves[0].vinlet_z                   16 	(obj:0)
thingy.thingy.chamber[3].first.vring_out_y                   22 	(obj:0)
thingy.thingy.chamber[3].first.vring_out_z                   13 	(obj:0)
thingy.thingy.chamber[0].first.vring_out_y                   20 	(obj:0)
thingy.thingy.chamber[0].first.vring_out_z                   17 	(obj:0)
